0 111 
1 114 
2 115 
3 112 
4 115 
5 113 
6 111 
7 114 
8 114 
9 114 
10 112 
11 110 
12 111 
13 111 
14 109 
15 107 
16 103 
17 99 
18 96 
19 95 
20 93 
21 91 
22 90 
23 89 
24 89 
25 88 
26 85 
27 80 
28 79 
29 77 
30 78 
31 74 
32 76 
33 76 
34 74 
35 74 
36 72 
37 67 
38 64 
39 60 
40 58 
41 59 
42 58 
43 56 
44 54 
45 52 
46 51 
47 50 
48 48 
49 49 
50 45 
51 43 
52 41 
53 40 
54 39 
55 39 
56 37 
57 35 
58 32 
59 32 
60 32 
61 33 
62 30 
63 27 
64 28 
65 28 
66 27 
67 25 
68 23 
69 21 
70 23 
71 23 
72 21 
73 21 
74 18 
75 17 
76 16 
77 15 
78 13 
79 9 
80 10 
81 8 
82 8 
83 8 
84 5 
85 5 
86 4 
87 4 
88 2 
89 1 
90 2 
91 1 
92 0 
93 0 

